(assert (forall ((pkt_0_4_6_0  Int  )(state_group_0_state_0_5_7_0  Int  )(state_group_0_state_1_6_8_0  Int  )) (let ((_n0 state_group_0_state_0_5_7_0 ))
(let ((_n1 2 ))
(let ((_n2 (ite (=  _n0  1)  _n1   _n0  ) ))
(let ((_n3 state_group_0_state_1_6_8_0 ))
(let ((_n4 false ))
(let ((_n5 (ite (=  _n0  1)  (ite  _n4  1 0)   _n3  ) ))
(let ((_n6 3 ))
(let ((_n7 (ite (=  _n5  999)  _n6   _n2  ) ))
(let ((_n8 (ite (=  _n2  2)  _n7   _n2  ) ))
(let ((_n9 (=   _n0   _n1 ) ))
(let ((_n10 (not  _n9 ) ))
(let ((_n11 (ite (=  _n0  2)  _n0   (ite  _n4  1 0)  ) ))
(let ((_n12 (=   _n11   (ite  _n4  1 0) ) ))
(let ((_n13 (not  _n12 ) ))
(let ((_n14 (and   _n9   _n13 ) ))
(let ((_n15 4 ))
(let ((_n16 (and   _n14   _n9 ) ))
(let ((_n17 (ite  _n16   _n3   (ite  _n4  1 0)  ) ))
(let ((_n18 (<   _n17   _n15 ) ))
(let ((_n19 (and   _n16   _n18 ) ))
(let ((_n20 (not  _n16 ) ))
(let ((_n21 (or   _n19   _n20 ) ))
(let ((_n22 pkt_0_4_6_0 ))
(let ((_n23 (ite  _n21   (ite  _n4  1 0)   _n22  ) ))
(let ((_n24 (+   _n0   _n23 ) ))
(let ((_n25 (ite (=  (ite  _n19  1 0)  1)  _n0   _n24  ) ))
(let ((_n26 (ite (=  (ite  _n14  1 0)  1)  _n25   _n0  ) ))
(let ((_n27 true ))
(let ((_n28 (ite (=  _n0  2)  (ite  _n4  1 0)   _n0  ) ))
(let ((_n29 (=   _n28   (ite  _n27  1 0) ) ))
(let ((_n30 (ite (=  _n0  2)  _n4   _n29  ) ))
(let ((_n31 (and   _n30   _n10 ) ))
(let ((_n32 (+   _n0   (ite  _n31  1 0) ) ))
(let ((_n33 (ite (=  (ite  _n30  1 0)  1)  _n32   _n0  ) ))
(let ((_n34 (ite (=  (ite  _n10  1 0)  1)  _n33   _n26  ) ))
(let ((_n35 (=   _n34   _n8 ) ))
(let ((_n37 (+   _n5   (ite  _n27  1 0) ) ))
(let ((_n38 (ite (=  _n2  2)  _n37   _n5  ) ))
(let ((_n39 999 ))
(let ((_n40 (ite  _n21   (ite  _n4  1 0)   _n39  ) ))
(let ((_n41 (+   _n40   _n23 ) ))
(let ((_n42 (ite  _n21   (ite  _n4  1 0)   _n41  ) ))
(let ((_n43 (ite  _n21   _n3   (ite  _n4  1 0)  ) ))
(let ((_n44 (+   _n43   _n42 ) ))
(let ((_n45 (and   _n19   _n16 ) ))
(let ((_n46 (+   _n3   (ite  _n45  1 0) ) ))
(let ((_n47 (ite (=  (ite  _n19  1 0)  1)  _n46   _n44  ) ))
(let ((_n48 (ite (=  (ite  _n14  1 0)  1)  _n47   _n3  ) ))
(let ((_n49 (ite  _n31   (ite  _n4  1 0)   _n3  ) ))
(let ((_n50 (+   _n49   (ite  _n31  1 0) ) ))
(let ((_n51 (ite (=  (ite  _n30  1 0)  1)  _n50   _n3  ) ))
(let ((_n52 (ite (=  (ite  _n10  1 0)  1)  _n51   _n48  ) ))
(let ((_n53 (=   _n52   _n38 ) ))
(let ((_n55 (ite (=  _n22  0)  _n22   (ite  _n4  1 0)  ) ))
(let ((_n56 (ite (=  _n22  0)  _n55   _n22  ) ))
(let ((_n57 (=   _n56   _n22 ) ))
(implies  (and (and (>= state_group_0_state_1_6_8_0 0) (< state_group_0_state_1_6_8_0 1024 ))  (and (and (>= state_group_0_state_0_5_7_0 0) (< state_group_0_state_0_5_7_0 1024 ))  (and (>= pkt_0_4_6_0 0) (< pkt_0_4_6_0 1024 )) ) )   (and  _n35  _n53  _n57 )  )))))))))))))))))))))))))))))))))))))))))))))))))))))))))))
(check-sat)
(get-model)
(exit)